data;

param n:=21;
param p:=4;
param r:=[1] 0 [2] 3 [3] 6 [4] 0 [5] 13 [6] 16 [7] 0 [8] 10 [9] 11 [10] 16 [11] 3 [12] 41 [13] 4 [14] 11 [15] 10 [16] 16 [17] 64 [18] 55 [19] 7 [20] 26 [21] 3 ;
param w:=[1] 94 [2] 67 [3] 72 [4] 17 [5] 95 [6] 59 [7] 24 [8] 43 [9] 6 [10] 1 [11] 99 [12] 51 [13] 84 [14] 57 [15] 68 [16] 83 [17] 67 [18] 50 [19] 2 [20] 45 [21] 87 ;

end;
